711.87
0 46 21 32 43 61 56 71 35 4 64 37 11 17 40 39 66 26 49 13 53 47 5 42 38 51 63 65 1 6 8 30 54 28 14 23 9 29 45 73 44 41 68 48 18 3 58 20 60 16 15 10 27 57 55 19 2 74 69 31 7 33 24 52 62 36 22 50 70 25 72 67 59 12 34
